p cnf 348 1283
c p weight 26 -1 0
c p weight -26 1 0
c p weight 28 6.12323399573676603586882014729198302312846062338790031898128063403419218957424163818359375E-17 0
c p weight -28 1 0
c p weight 29 1 0
c p weight -29 1 0
c p weight 30 -1 0
c p weight -30 1 0
c p weight 32 -1 0
c p weight -32 1 0
c p weight 34 -1 0
c p weight -34 1 0
c p weight 36 6.12323399573676603586882014729198302312846062338790031898128063403419218957424163818359375E-17 0
c p weight -36 1 0
c p weight 37 1 0
c p weight -37 1 0
c p weight 38 -1 0
c p weight -38 1 0
c p weight 40 -1 0
c p weight -40 1 0
c p weight 42 -1 0
c p weight -42 1 0
c p weight 44 6.12323399573676603586882014729198302312846062338790031898128063403419218957424163818359375E-17 0
c p weight -44 1 0
c p weight 45 1 0
c p weight -45 1 0
c p weight 46 -1 0
c p weight -46 1 0
c p weight 48 -1 0
c p weight -48 1 0
c p weight 51 -1 0
c p weight -51 1 0
c p weight 53 -1 0
c p weight -53 1 0
c p weight 55 6.12323399573676603586882014729198302312846062338790031898128063403419218957424163818359375E-17 0
c p weight -55 1 0
c p weight 56 1 0
c p weight -56 1 0
c p weight 57 -1 0
c p weight -57 1 0
c p weight 59 -1 0
c p weight -59 1 0
c p weight 61 -1 0
c p weight -61 1 0
c p weight 63 6.12323399573676603586882014729198302312846062338790031898128063403419218957424163818359375E-17 0
c p weight -63 1 0
c p weight 64 1 0
c p weight -64 1 0
c p weight 65 -1 0
c p weight -65 1 0
c p weight 67 -1 0
c p weight -67 1 0
c p weight 69 -1 0
c p weight -69 1 0
c p weight 71 6.12323399573676603586882014729198302312846062338790031898128063403419218957424163818359375E-17 0
c p weight -71 1 0
c p weight 72 1 0
c p weight -72 1 0
c p weight 73 -1 0
c p weight -73 1 0
c p weight 75 -1 0
c p weight -75 1 0
c p weight 77 -1 0
c p weight -77 1 0
c p weight 79 6.12323399573676603586882014729198302312846062338790031898128063403419218957424163818359375E-17 0
c p weight -79 1 0
c p weight 80 1 0
c p weight -80 1 0
c p weight 81 -1 0
c p weight -81 1 0
c p weight 83 -1 0
c p weight -83 1 0
c p weight 86 -1 0
c p weight -86 1 0
c p weight 88 -1 0
c p weight -88 1 0
c p weight 90 6.12323399573676603586882014729198302312846062338790031898128063403419218957424163818359375E-17 0
c p weight -90 1 0
c p weight 91 1 0
c p weight -91 1 0
c p weight 92 -1 0
c p weight -92 1 0
c p weight 94 -1 0
c p weight -94 1 0
c p weight 96 -1 0
c p weight -96 1 0
c p weight 98 6.12323399573676603586882014729198302312846062338790031898128063403419218957424163818359375E-17 0
c p weight -98 1 0
c p weight 99 1 0
c p weight -99 1 0
c p weight 100 -1 0
c p weight -100 1 0
c p weight 102 -1 0
c p weight -102 1 0
c p weight 104 -1 0
c p weight -104 1 0
c p weight 106 6.12323399573676603586882014729198302312846062338790031898128063403419218957424163818359375E-17 0
c p weight -106 1 0
c p weight 107 1 0
c p weight -107 1 0
c p weight 108 -1 0
c p weight -108 1 0
c p weight 110 -1 0
c p weight -110 1 0
c p weight 112 -1 0
c p weight -112 1 0
c p weight 114 6.12323399573676603586882014729198302312846062338790031898128063403419218957424163818359375E-17 0
c p weight -114 1 0
c p weight 115 1 0
c p weight -115 1 0
c p weight 116 -1 0
c p weight -116 1 0
c p weight 118 -1 0
c p weight -118 1 0
c p weight 121 -1 0
c p weight -121 1 0
c p weight 123 -1 0
c p weight -123 1 0
c p weight 125 6.12323399573676603586882014729198302312846062338790031898128063403419218957424163818359375E-17 0
c p weight -125 1 0
c p weight 126 1 0
c p weight -126 1 0
c p weight 127 -1 0
c p weight -127 1 0
c p weight 129 -1 0
c p weight -129 1 0
c p weight 131 -1 0
c p weight -131 1 0
c p weight 133 6.12323399573676603586882014729198302312846062338790031898128063403419218957424163818359375E-17 0
c p weight -133 1 0
c p weight 134 1 0
c p weight -134 1 0
c p weight 135 -1 0
c p weight -135 1 0
c p weight 137 -1 0
c p weight -137 1 0
c p weight 139 -1 0
c p weight -139 1 0
c p weight 141 6.12323399573676603586882014729198302312846062338790031898128063403419218957424163818359375E-17 0
c p weight -141 1 0
c p weight 142 1 0
c p weight -142 1 0
c p weight 143 -1 0
c p weight -143 1 0
c p weight 145 -1 0
c p weight -145 1 0
c p weight 147 -1 0
c p weight -147 1 0
c p weight 149 6.12323399573676603586882014729198302312846062338790031898128063403419218957424163818359375E-17 0
c p weight -149 1 0
c p weight 150 1 0
c p weight -150 1 0
c p weight 151 -1 0
c p weight -151 1 0
c p weight 153 -1 0
c p weight -153 1 0
c p weight 156 -1 0
c p weight -156 1 0
c p weight 158 -1 0
c p weight -158 1 0
c p weight 160 6.12323399573676603586882014729198302312846062338790031898128063403419218957424163818359375E-17 0
c p weight -160 1 0
c p weight 161 1 0
c p weight -161 1 0
c p weight 162 -1 0
c p weight -162 1 0
c p weight 164 -1 0
c p weight -164 1 0
c p weight 166 -1 0
c p weight -166 1 0
c p weight 168 6.12323399573676603586882014729198302312846062338790031898128063403419218957424163818359375E-17 0
c p weight -168 1 0
c p weight 169 1 0
c p weight -169 1 0
c p weight 170 -1 0
c p weight -170 1 0
c p weight 172 -1 0
c p weight -172 1 0
c p weight 175 -1 0
c p weight -175 1 0
c p weight 177 -1 0
c p weight -177 1 0
c p weight 179 6.12323399573676603586882014729198302312846062338790031898128063403419218957424163818359375E-17 0
c p weight -179 1 0
c p weight 180 1 0
c p weight -180 1 0
c p weight 181 -1 0
c p weight -181 1 0
c p weight 183 -1 0
c p weight -183 1 0
c p weight 185 -1 0
c p weight -185 1 0
c p weight 187 6.12323399573676603586882014729198302312846062338790031898128063403419218957424163818359375E-17 0
c p weight -187 1 0
c p weight 188 1 0
c p weight -188 1 0
c p weight 189 -1 0
c p weight -189 1 0
c p weight 191 -1 0
c p weight -191 1 0
c p weight 193 -1 0
c p weight -193 1 0
c p weight 195 6.12323399573676603586882014729198302312846062338790031898128063403419218957424163818359375E-17 0
c p weight -195 1 0
c p weight 196 1 0
c p weight -196 1 0
c p weight 197 -1 0
c p weight -197 1 0
c p weight 199 -1 0
c p weight -199 1 0
c p weight 202 -1 0
c p weight -202 1 0
c p weight 204 -1 0
c p weight -204 1 0
c p weight 206 6.12323399573676603586882014729198302312846062338790031898128063403419218957424163818359375E-17 0
c p weight -206 1 0
c p weight 207 1 0
c p weight -207 1 0
c p weight 208 -1 0
c p weight -208 1 0
c p weight 210 -1 0
c p weight -210 1 0
c p weight 212 -1 0
c p weight -212 1 0
c p weight 214 6.12323399573676603586882014729198302312846062338790031898128063403419218957424163818359375E-17 0
c p weight -214 1 0
c p weight 215 1 0
c p weight -215 1 0
c p weight 216 -1 0
c p weight -216 1 0
c p weight 218 -1 0
c p weight -218 1 0
c p weight 221 -1 0
c p weight -221 1 0
c p weight 223 -1 0
c p weight -223 1 0
c p weight 225 6.12323399573676603586882014729198302312846062338790031898128063403419218957424163818359375E-17 0
c p weight -225 1 0
c p weight 226 1 0
c p weight -226 1 0
c p weight 227 -1 0
c p weight -227 1 0
c p weight 229 -1 0
c p weight -229 1 0
c p weight 231 -1 0
c p weight -231 1 0
c p weight 233 6.12323399573676603586882014729198302312846062338790031898128063403419218957424163818359375E-17 0
c p weight -233 1 0
c p weight 234 1 0
c p weight -234 1 0
c p weight 235 -1 0
c p weight -235 1 0
c p weight 237 -1 0
c p weight -237 1 0
c p weight 239 -1 0
c p weight -239 1 0
c p weight 241 6.12323399573676603586882014729198302312846062338790031898128063403419218957424163818359375E-17 0
c p weight -241 1 0
c p weight 242 1 0
c p weight -242 1 0
c p weight 243 -1 0
c p weight -243 1 0
c p weight 245 -1 0
c p weight -245 1 0
c p weight 248 -1 0
c p weight -248 1 0
c p weight 250 -1 0
c p weight -250 1 0
c p weight 252 6.12323399573676603586882014729198302312846062338790031898128063403419218957424163818359375E-17 0
c p weight -252 1 0
c p weight 253 1 0
c p weight -253 1 0
c p weight 254 -1 0
c p weight -254 1 0
c p weight 256 -1 0
c p weight -256 1 0
c p weight 258 -1 0
c p weight -258 1 0
c p weight 260 6.12323399573676603586882014729198302312846062338790031898128063403419218957424163818359375E-17 0
c p weight -260 1 0
c p weight 261 1 0
c p weight -261 1 0
c p weight 262 -1 0
c p weight -262 1 0
c p weight 264 -1 0
c p weight -264 1 0
c p weight 266 -1 0
c p weight -266 1 0
c p weight 268 6.12323399573676603586882014729198302312846062338790031898128063403419218957424163818359375E-17 0
c p weight -268 1 0
c p weight 269 1 0
c p weight -269 1 0
c p weight 270 -1 0
c p weight -270 1 0
c p weight 272 -1 0
c p weight -272 1 0
c p weight 275 -1 0
c p weight -275 1 0
c p weight 277 -1 0
c p weight -277 1 0
c p weight 279 6.12323399573676603586882014729198302312846062338790031898128063403419218957424163818359375E-17 0
c p weight -279 1 0
c p weight 280 1 0
c p weight -280 1 0
c p weight 281 -1 0
c p weight -281 1 0
c p weight 283 -1 0
c p weight -283 1 0
c p weight 285 -1 0
c p weight -285 1 0
c p weight 287 6.12323399573676603586882014729198302312846062338790031898128063403419218957424163818359375E-17 0
c p weight -287 1 0
c p weight 288 1 0
c p weight -288 1 0
c p weight 289 -1 0
c p weight -289 1 0
c p weight 291 -1 0
c p weight -291 1 0
c p weight 294 -1 0
c p weight -294 1 0
c p weight 296 -1 0
c p weight -296 1 0
c p weight 298 6.12323399573676603586882014729198302312846062338790031898128063403419218957424163818359375E-17 0
c p weight -298 1 0
c p weight 299 1 0
c p weight -299 1 0
c p weight 300 -1 0
c p weight -300 1 0
c p weight 302 -1 0
c p weight -302 1 0
c p weight 304 -1 0
c p weight -304 1 0
c p weight 306 6.12323399573676603586882014729198302312846062338790031898128063403419218957424163818359375E-17 0
c p weight -306 1 0
c p weight 307 1 0
c p weight -307 1 0
c p weight 308 -1 0
c p weight -308 1 0
c p weight 310 -1 0
c p weight -310 1 0
c p weight 312 -1 0
c p weight -312 1 0
c p weight 314 6.12323399573676603586882014729198302312846062338790031898128063403419218957424163818359375E-17 0
c p weight -314 1 0
c p weight 315 1 0
c p weight -315 1 0
c p weight 316 -1 0
c p weight -316 1 0
c p weight 318 -1 0
c p weight -318 1 0
c p weight 321 -1 0
c p weight -321 1 0
c p weight 323 -1 0
c p weight -323 1 0
c p weight 325 6.12323399573676603586882014729198302312846062338790031898128063403419218957424163818359375E-17 0
c p weight -325 1 0
c p weight 326 1 0
c p weight -326 1 0
c p weight 327 -1 0
c p weight -327 1 0
c p weight 329 -1 0
c p weight -329 1 0
c p weight 331 -1 0
c p weight -331 1 0
c p weight 333 6.12323399573676603586882014729198302312846062338790031898128063403419218957424163818359375E-17 0
c p weight -333 1 0
c p weight 334 1 0
c p weight -334 1 0
c p weight 335 -1 0
c p weight -335 1 0
c p weight 337 -1 0
c p weight -337 1 0
c p weight 340 -1 0
c p weight -340 1 0
c p weight 342 -1 0
c p weight -342 1 0
c p weight 344 6.12323399573676603586882014729198302312846062338790031898128063403419218957424163818359375E-17 0
c p weight -344 1 0
c p weight 345 1 0
c p weight -345 1 0
c p weight 346 -1 0
c p weight -346 1 0
c p weight 348 -1 0
c p weight -348 1 0
-23 0
-21 0
-19 0
-17 0
-15 0
-13 0
-11 0
-9 0
-7 0
-5 0
-3 0
-1 0
25 1 -2 0
25 -1 2 0
-25 1 2 0
-25 -1 -2 0
-26 1 0
-26 2 0
26 -1 -2 0
27 -1 25 0
-27 1 25 0
-28 25 0
27 -28 -1 0
-27 -28 1 0
27 28 1 -25 0
-27 28 -1 -25 0
-29 25 0
27 -29 1 0
-27 -29 -1 0
27 29 -1 -25 0
-27 29 1 -25 0
-30 27 0
-30 25 0
-30 -1 0
30 -27 1 -25 0
31 27 -25 0
31 -27 25 0
-31 27 25 0
-31 -27 -25 0
-32 27 0
-32 25 0
32 -27 -25 0
33 3 -4 0
33 -3 4 0
-33 3 4 0
-33 -3 -4 0
-34 3 0
-34 4 0
34 -3 -4 0
35 -3 33 0
-35 3 33 0
-36 33 0
35 -36 -3 0
-35 -36 3 0
35 36 3 -33 0
-35 36 -3 -33 0
-37 33 0
35 -37 3 0
-35 -37 -3 0
35 37 -3 -33 0
-35 37 3 -33 0
-38 35 0
-38 33 0
-38 -3 0
38 -35 3 -33 0
39 35 -33 0
39 -35 33 0
-39 35 33 0
-39 -35 -33 0
-40 35 0
-40 33 0
40 -35 -33 0
41 35 -39 0
41 -35 39 0
-41 35 39 0
-41 -35 -39 0
-42 35 0
-42 39 0
42 -35 -39 0
43 -35 41 0
-43 35 41 0
-44 41 0
43 -44 -35 0
-43 -44 35 0
43 44 35 -41 0
-43 44 -35 -41 0
-45 41 0
43 -45 35 0
-43 -45 -35 0
43 45 -35 -41 0
-43 45 35 -41 0
-46 43 0
-46 41 0
-46 -35 0
46 -43 35 -41 0
47 43 -41 0
47 -43 41 0
-47 43 41 0
-47 -43 -41 0
-48 43 0
-48 41 0
48 -43 -41 0
49 27 -43 0
49 -27 43 0
-49 27 43 0
-49 -27 -43 0
50 31 -47 0
50 -31 47 0
-50 31 47 0
-50 -31 -47 0
-51 27 0
-51 47 0
-51 43 -31 0
-51 -43 31 0
51 -27 43 31 -47 0
51 -27 -43 -31 -47 0
52 49 -47 0
52 -49 47 0
-52 49 47 0
-52 -49 -47 0
-53 49 0
-53 47 0
53 -49 -47 0
54 -49 52 0
-54 49 52 0
-55 52 0
54 -55 -49 0
-54 -55 49 0
54 55 49 -52 0
-54 55 -49 -52 0
-56 52 0
54 -56 49 0
-54 -56 -49 0
54 56 -49 -52 0
-54 56 49 -52 0
-57 54 0
-57 52 0
-57 -49 0
57 -54 49 -52 0
58 54 -52 0
58 -54 52 0
-58 54 52 0
-58 -54 -52 0
-59 54 0
-59 52 0
59 -54 -52 0
60 5 -6 0
60 -5 6 0
-60 5 6 0
-60 -5 -6 0
-61 5 0
-61 6 0
61 -5 -6 0
62 -5 60 0
-62 5 60 0
-63 60 0
62 -63 -5 0
-62 -63 5 0
62 63 5 -60 0
-62 63 -5 -60 0
-64 60 0
62 -64 5 0
-62 -64 -5 0
62 64 -5 -60 0
-62 64 5 -60 0
-65 62 0
-65 60 0
-65 -5 0
65 -62 5 -60 0
66 62 -60 0
66 -62 60 0
-66 62 60 0
-66 -62 -60 0
-67 62 0
-67 60 0
67 -62 -60 0
68 7 -8 0
68 -7 8 0
-68 7 8 0
-68 -7 -8 0
-69 7 0
-69 8 0
69 -7 -8 0
70 -7 68 0
-70 7 68 0
-71 68 0
70 -71 -7 0
-70 -71 7 0
70 71 7 -68 0
-70 71 -7 -68 0
-72 68 0
70 -72 7 0
-70 -72 -7 0
70 72 -7 -68 0
-70 72 7 -68 0
-73 70 0
-73 68 0
-73 -7 0
73 -70 7 -68 0
74 70 -68 0
74 -70 68 0
-74 70 68 0
-74 -70 -68 0
-75 70 0
-75 68 0
75 -70 -68 0
76 70 -74 0
76 -70 74 0
-76 70 74 0
-76 -70 -74 0
-77 70 0
-77 74 0
77 -70 -74 0
78 -70 76 0
-78 70 76 0
-79 76 0
78 -79 -70 0
-78 -79 70 0
78 79 70 -76 0
-78 79 -70 -76 0
-80 76 0
78 -80 70 0
-78 -80 -70 0
78 80 -70 -76 0
-78 80 70 -76 0
-81 78 0
-81 76 0
-81 -70 0
81 -78 70 -76 0
82 78 -76 0
82 -78 76 0
-82 78 76 0
-82 -78 -76 0
-83 78 0
-83 76 0
83 -78 -76 0
84 62 -78 0
84 -62 78 0
-84 62 78 0
-84 -62 -78 0
85 66 -82 0
85 -66 82 0
-85 66 82 0
-85 -66 -82 0
-86 62 0
-86 82 0
-86 78 -66 0
-86 -78 66 0
86 -62 78 66 -82 0
86 -62 -78 -66 -82 0
87 84 -82 0
87 -84 82 0
-87 84 82 0
-87 -84 -82 0
-88 84 0
-88 82 0
88 -84 -82 0
89 -84 87 0
-89 84 87 0
-90 87 0
89 -90 -84 0
-89 -90 84 0
89 90 84 -87 0
-89 90 -84 -87 0
-91 87 0
89 -91 84 0
-89 -91 -84 0
89 91 -84 -87 0
-89 91 84 -87 0
-92 89 0
-92 87 0
-92 -84 0
92 -89 84 -87 0
93 89 -87 0
93 -89 87 0
-93 89 87 0
-93 -89 -87 0
-94 89 0
-94 87 0
94 -89 -87 0
95 9 -10 0
95 -9 10 0
-95 9 10 0
-95 -9 -10 0
-96 9 0
-96 10 0
96 -9 -10 0
97 -9 95 0
-97 9 95 0
-98 95 0
97 -98 -9 0
-97 -98 9 0
97 98 9 -95 0
-97 98 -9 -95 0
-99 95 0
97 -99 9 0
-97 -99 -9 0
97 99 -9 -95 0
-97 99 9 -95 0
-100 97 0
-100 95 0
-100 -9 0
100 -97 9 -95 0
101 97 -95 0
101 -97 95 0
-101 97 95 0
-101 -97 -95 0
-102 97 0
-102 95 0
102 -97 -95 0
103 11 -12 0
103 -11 12 0
-103 11 12 0
-103 -11 -12 0
-104 11 0
-104 12 0
104 -11 -12 0
105 -11 103 0
-105 11 103 0
-106 103 0
105 -106 -11 0
-105 -106 11 0
105 106 11 -103 0
-105 106 -11 -103 0
-107 103 0
105 -107 11 0
-105 -107 -11 0
105 107 -11 -103 0
-105 107 11 -103 0
-108 105 0
-108 103 0
-108 -11 0
108 -105 11 -103 0
109 105 -103 0
109 -105 103 0
-109 105 103 0
-109 -105 -103 0
-110 105 0
-110 103 0
110 -105 -103 0
111 105 -109 0
111 -105 109 0
-111 105 109 0
-111 -105 -109 0
-112 105 0
-112 109 0
112 -105 -109 0
113 -105 111 0
-113 105 111 0
-114 111 0
113 -114 -105 0
-113 -114 105 0
113 114 105 -111 0
-113 114 -105 -111 0
-115 111 0
113 -115 105 0
-113 -115 -105 0
113 115 -105 -111 0
-113 115 105 -111 0
-116 113 0
-116 111 0
-116 -105 0
116 -113 105 -111 0
117 113 -111 0
117 -113 111 0
-117 113 111 0
-117 -113 -111 0
-118 113 0
-118 111 0
118 -113 -111 0
119 97 -113 0
119 -97 113 0
-119 97 113 0
-119 -97 -113 0
120 101 -117 0
120 -101 117 0
-120 101 117 0
-120 -101 -117 0
-121 97 0
-121 117 0
-121 113 -101 0
-121 -113 101 0
121 -97 113 101 -117 0
121 -97 -113 -101 -117 0
122 119 -117 0
122 -119 117 0
-122 119 117 0
-122 -119 -117 0
-123 119 0
-123 117 0
123 -119 -117 0
124 -119 122 0
-124 119 122 0
-125 122 0
124 -125 -119 0
-124 -125 119 0
124 125 119 -122 0
-124 125 -119 -122 0
-126 122 0
124 -126 119 0
-124 -126 -119 0
124 126 -119 -122 0
-124 126 119 -122 0
-127 124 0
-127 122 0
-127 -119 0
127 -124 119 -122 0
128 124 -122 0
128 -124 122 0
-128 124 122 0
-128 -124 -122 0
-129 124 0
-129 122 0
129 -124 -122 0
130 13 -14 0
130 -13 14 0
-130 13 14 0
-130 -13 -14 0
-131 13 0
-131 14 0
131 -13 -14 0
132 -13 130 0
-132 13 130 0
-133 130 0
132 -133 -13 0
-132 -133 13 0
132 133 13 -130 0
-132 133 -13 -130 0
-134 130 0
132 -134 13 0
-132 -134 -13 0
132 134 -13 -130 0
-132 134 13 -130 0
-135 132 0
-135 130 0
-135 -13 0
135 -132 13 -130 0
136 132 -130 0
136 -132 130 0
-136 132 130 0
-136 -132 -130 0
-137 132 0
-137 130 0
137 -132 -130 0
138 15 -16 0
138 -15 16 0
-138 15 16 0
-138 -15 -16 0
-139 15 0
-139 16 0
139 -15 -16 0
140 -15 138 0
-140 15 138 0
-141 138 0
140 -141 -15 0
-140 -141 15 0
140 141 15 -138 0
-140 141 -15 -138 0
-142 138 0
140 -142 15 0
-140 -142 -15 0
140 142 -15 -138 0
-140 142 15 -138 0
-143 140 0
-143 138 0
-143 -15 0
143 -140 15 -138 0
144 140 -138 0
144 -140 138 0
-144 140 138 0
-144 -140 -138 0
-145 140 0
-145 138 0
145 -140 -138 0
146 140 -144 0
146 -140 144 0
-146 140 144 0
-146 -140 -144 0
-147 140 0
-147 144 0
147 -140 -144 0
148 -140 146 0
-148 140 146 0
-149 146 0
148 -149 -140 0
-148 -149 140 0
148 149 140 -146 0
-148 149 -140 -146 0
-150 146 0
148 -150 140 0
-148 -150 -140 0
148 150 -140 -146 0
-148 150 140 -146 0
-151 148 0
-151 146 0
-151 -140 0
151 -148 140 -146 0
152 148 -146 0
152 -148 146 0
-152 148 146 0
-152 -148 -146 0
-153 148 0
-153 146 0
153 -148 -146 0
154 97 -148 0
154 -97 148 0
-154 97 148 0
-154 -97 -148 0
155 120 -152 0
155 -120 152 0
-155 120 152 0
-155 -120 -152 0
-156 97 0
-156 152 0
-156 148 -120 0
-156 -148 120 0
156 -97 148 120 -152 0
156 -97 -148 -120 -152 0
157 154 -152 0
157 -154 152 0
-157 154 152 0
-157 -154 -152 0
-158 154 0
-158 152 0
158 -154 -152 0
159 -154 157 0
-159 154 157 0
-160 157 0
159 -160 -154 0
-159 -160 154 0
159 160 154 -157 0
-159 160 -154 -157 0
-161 157 0
159 -161 154 0
-159 -161 -154 0
159 161 -154 -157 0
-159 161 154 -157 0
-162 159 0
-162 157 0
-162 -154 0
162 -159 154 -157 0
163 159 -157 0
163 -159 157 0
-163 159 157 0
-163 -159 -157 0
-164 159 0
-164 157 0
164 -159 -157 0
165 159 -163 0
165 -159 163 0
-165 159 163 0
-165 -159 -163 0
-166 159 0
-166 163 0
166 -159 -163 0
167 -159 165 0
-167 159 165 0
-168 165 0
167 -168 -159 0
-167 -168 159 0
167 168 159 -165 0
-167 168 -159 -165 0
-169 165 0
167 -169 159 0
-167 -169 -159 0
167 169 -159 -165 0
-167 169 159 -165 0
-170 167 0
-170 165 0
-170 -159 0
170 -167 159 -165 0
171 167 -165 0
171 -167 165 0
-171 167 165 0
-171 -167 -165 0
-172 167 0
-172 165 0
172 -167 -165 0
173 132 -167 0
173 -132 167 0
-173 132 167 0
-173 -132 -167 0
174 136 -171 0
174 -136 171 0
-174 136 171 0
-174 -136 -171 0
-175 132 0
-175 171 0
-175 167 -136 0
-175 -167 136 0
175 -132 167 136 -171 0
175 -132 -167 -136 -171 0
176 173 -171 0
176 -173 171 0
-176 173 171 0
-176 -173 -171 0
-177 173 0
-177 171 0
177 -173 -171 0
178 -173 176 0
-178 173 176 0
-179 176 0
178 -179 -173 0
-178 -179 173 0
178 179 173 -176 0
-178 179 -173 -176 0
-180 176 0
178 -180 173 0
-178 -180 -173 0
178 180 -173 -176 0
-178 180 173 -176 0
-181 178 0
-181 176 0
-181 -173 0
181 -178 173 -176 0
182 178 -176 0
182 -178 176 0
-182 178 176 0
-182 -178 -176 0
-183 178 0
-183 176 0
183 -178 -176 0
184 17 -18 0
184 -17 18 0
-184 17 18 0
-184 -17 -18 0
-185 17 0
-185 18 0
185 -17 -18 0
186 -17 184 0
-186 17 184 0
-187 184 0
186 -187 -17 0
-186 -187 17 0
186 187 17 -184 0
-186 187 -17 -184 0
-188 184 0
186 -188 17 0
-186 -188 -17 0
186 188 -17 -184 0
-186 188 17 -184 0
-189 186 0
-189 184 0
-189 -17 0
189 -186 17 -184 0
190 186 -184 0
190 -186 184 0
-190 186 184 0
-190 -186 -184 0
-191 186 0
-191 184 0
191 -186 -184 0
192 186 -190 0
192 -186 190 0
-192 186 190 0
-192 -186 -190 0
-193 186 0
-193 190 0
193 -186 -190 0
194 -186 192 0
-194 186 192 0
-195 192 0
194 -195 -186 0
-194 -195 186 0
194 195 186 -192 0
-194 195 -186 -192 0
-196 192 0
194 -196 186 0
-194 -196 -186 0
194 196 -186 -192 0
-194 196 186 -192 0
-197 194 0
-197 192 0
-197 -186 0
197 -194 186 -192 0
198 194 -192 0
198 -194 192 0
-198 194 192 0
-198 -194 -192 0
-199 194 0
-199 192 0
199 -194 -192 0
200 89 -194 0
200 -89 194 0
-200 89 194 0
-200 -89 -194 0
201 93 -198 0
201 -93 198 0
-201 93 198 0
-201 -93 -198 0
-202 89 0
-202 198 0
-202 194 -93 0
-202 -194 93 0
202 -89 194 93 -198 0
202 -89 -194 -93 -198 0
203 200 -198 0
203 -200 198 0
-203 200 198 0
-203 -200 -198 0
-204 200 0
-204 198 0
204 -200 -198 0
205 -200 203 0
-205 200 203 0
-206 203 0
205 -206 -200 0
-205 -206 200 0
205 206 200 -203 0
-205 206 -200 -203 0
-207 203 0
205 -207 200 0
-205 -207 -200 0
205 207 -200 -203 0
-205 207 200 -203 0
-208 205 0
-208 203 0
-208 -200 0
208 -205 200 -203 0
209 205 -203 0
209 -205 203 0
-209 205 203 0
-209 -205 -203 0
-210 205 0
-210 203 0
210 -205 -203 0
211 205 -209 0
211 -205 209 0
-211 205 209 0
-211 -205 -209 0
-212 205 0
-212 209 0
212 -205 -209 0
213 -205 211 0
-213 205 211 0
-214 211 0
213 -214 -205 0
-213 -214 205 0
213 214 205 -211 0
-213 214 -205 -211 0
-215 211 0
213 -215 205 0
-213 -215 -205 0
213 215 -205 -211 0
-213 215 205 -211 0
-216 213 0
-216 211 0
-216 -205 0
216 -213 205 -211 0
217 213 -211 0
217 -213 211 0
-217 213 211 0
-217 -213 -211 0
-218 213 0
-218 211 0
218 -213 -211 0
219 132 -213 0
219 -132 213 0
-219 132 213 0
-219 -132 -213 0
220 174 -217 0
220 -174 217 0
-220 174 217 0
-220 -174 -217 0
-221 132 0
-221 217 0
-221 213 -174 0
-221 -213 174 0
221 -132 213 174 -217 0
221 -132 -213 -174 -217 0
222 219 -217 0
222 -219 217 0
-222 219 217 0
-222 -219 -217 0
-223 219 0
-223 217 0
223 -219 -217 0
224 -219 222 0
-224 219 222 0
-225 222 0
224 -225 -219 0
-224 -225 219 0
224 225 219 -222 0
-224 225 -219 -222 0
-226 222 0
224 -226 219 0
-224 -226 -219 0
224 226 -219 -222 0
-224 226 219 -222 0
-227 224 0
-227 222 0
-227 -219 0
227 -224 219 -222 0
228 224 -222 0
228 -224 222 0
-228 224 222 0
-228 -224 -222 0
-229 224 0
-229 222 0
229 -224 -222 0
230 19 -20 0
230 -19 20 0
-230 19 20 0
-230 -19 -20 0
-231 19 0
-231 20 0
231 -19 -20 0
232 -19 230 0
-232 19 230 0
-233 230 0
232 -233 -19 0
-232 -233 19 0
232 233 19 -230 0
-232 233 -19 -230 0
-234 230 0
232 -234 19 0
-232 -234 -19 0
232 234 -19 -230 0
-232 234 19 -230 0
-235 232 0
-235 230 0
-235 -19 0
235 -232 19 -230 0
236 232 -230 0
236 -232 230 0
-236 232 230 0
-236 -232 -230 0
-237 232 0
-237 230 0
237 -232 -230 0
238 232 -236 0
238 -232 236 0
-238 232 236 0
-238 -232 -236 0
-239 232 0
-239 236 0
239 -232 -236 0
240 -232 238 0
-240 232 238 0
-241 238 0
240 -241 -232 0
-240 -241 232 0
240 241 232 -238 0
-240 241 -232 -238 0
-242 238 0
240 -242 232 0
-240 -242 -232 0
240 242 -232 -238 0
-240 242 232 -238 0
-243 240 0
-243 238 0
-243 -232 0
243 -240 232 -238 0
244 240 -238 0
244 -240 238 0
-244 240 238 0
-244 -240 -238 0
-245 240 0
-245 238 0
245 -240 -238 0
246 54 -240 0
246 -54 240 0
-246 54 240 0
-246 -54 -240 0
247 58 -244 0
247 -58 244 0
-247 58 244 0
-247 -58 -244 0
-248 54 0
-248 244 0
-248 240 -58 0
-248 -240 58 0
248 -54 240 58 -244 0
248 -54 -240 -58 -244 0
249 246 -244 0
249 -246 244 0
-249 246 244 0
-249 -246 -244 0
-250 246 0
-250 244 0
250 -246 -244 0
251 -246 249 0
-251 246 249 0
-252 249 0
251 -252 -246 0
-251 -252 246 0
251 252 246 -249 0
-251 252 -246 -249 0
-253 249 0
251 -253 246 0
-251 -253 -246 0
251 253 -246 -249 0
-251 253 246 -249 0
-254 251 0
-254 249 0
-254 -246 0
254 -251 246 -249 0
255 251 -249 0
255 -251 249 0
-255 251 249 0
-255 -251 -249 0
-256 251 0
-256 249 0
256 -251 -249 0
257 21 -22 0
257 -21 22 0
-257 21 22 0
-257 -21 -22 0
-258 21 0
-258 22 0
258 -21 -22 0
259 -21 257 0
-259 21 257 0
-260 257 0
259 -260 -21 0
-259 -260 21 0
259 260 21 -257 0
-259 260 -21 -257 0
-261 257 0
259 -261 21 0
-259 -261 -21 0
259 261 -21 -257 0
-259 261 21 -257 0
-262 259 0
-262 257 0
-262 -21 0
262 -259 21 -257 0
263 259 -257 0
263 -259 257 0
-263 259 257 0
-263 -259 -257 0
-264 259 0
-264 257 0
264 -259 -257 0
265 259 -263 0
265 -259 263 0
-265 259 263 0
-265 -259 -263 0
-266 259 0
-266 263 0
266 -259 -263 0
267 -259 265 0
-267 259 265 0
-268 265 0
267 -268 -259 0
-267 -268 259 0
267 268 259 -265 0
-267 268 -259 -265 0
-269 265 0
267 -269 259 0
-267 -269 -259 0
267 269 -259 -265 0
-267 269 259 -265 0
-270 267 0
-270 265 0
-270 -259 0
270 -267 259 -265 0
271 267 -265 0
271 -267 265 0
-271 267 265 0
-271 -267 -265 0
-272 267 0
-272 265 0
272 -267 -265 0
273 27 -267 0
273 -27 267 0
-273 27 267 0
-273 -27 -267 0
274 50 -271 0
274 -50 271 0
-274 50 271 0
-274 -50 -271 0
-275 27 0
-275 271 0
-275 267 -50 0
-275 -267 50 0
275 -27 267 50 -271 0
275 -27 -267 -50 -271 0
276 273 -271 0
276 -273 271 0
-276 273 271 0
-276 -273 -271 0
-277 273 0
-277 271 0
277 -273 -271 0
278 -273 276 0
-278 273 276 0
-279 276 0
278 -279 -273 0
-278 -279 273 0
278 279 273 -276 0
-278 279 -273 -276 0
-280 276 0
278 -280 273 0
-278 -280 -273 0
278 280 -273 -276 0
-278 280 273 -276 0
-281 278 0
-281 276 0
-281 -273 0
281 -278 273 -276 0
282 278 -276 0
282 -278 276 0
-282 278 276 0
-282 -278 -276 0
-283 278 0
-283 276 0
283 -278 -276 0
284 278 -282 0
284 -278 282 0
-284 278 282 0
-284 -278 -282 0
-285 278 0
-285 282 0
285 -278 -282 0
286 -278 284 0
-286 278 284 0
-287 284 0
286 -287 -278 0
-286 -287 278 0
286 287 278 -284 0
-286 287 -278 -284 0
-288 284 0
286 -288 278 0
-286 -288 -278 0
286 288 -278 -284 0
-286 288 278 -284 0
-289 286 0
-289 284 0
-289 -278 0
289 -286 278 -284 0
290 286 -284 0
290 -286 284 0
-290 286 284 0
-290 -286 -284 0
-291 286 0
-291 284 0
291 -286 -284 0
292 251 -286 0
292 -251 286 0
-292 251 286 0
-292 -251 -286 0
293 255 -290 0
293 -255 290 0
-293 255 290 0
-293 -255 -290 0
-294 251 0
-294 290 0
-294 286 -255 0
-294 -286 255 0
294 -251 286 255 -290 0
294 -251 -286 -255 -290 0
295 292 -290 0
295 -292 290 0
-295 292 290 0
-295 -292 -290 0
-296 292 0
-296 290 0
296 -292 -290 0
297 -292 295 0
-297 292 295 0
-298 295 0
297 -298 -292 0
-297 -298 292 0
297 298 292 -295 0
-297 298 -292 -295 0
-299 295 0
297 -299 292 0
-297 -299 -292 0
297 299 -292 -295 0
-297 299 292 -295 0
-300 297 0
-300 295 0
-300 -292 0
300 -297 292 -295 0
301 297 -295 0
301 -297 295 0
-301 297 295 0
-301 -297 -295 0
-302 297 0
-302 295 0
302 -297 -295 0
303 23 -24 0
303 -23 24 0
-303 23 24 0
-303 -23 -24 0
-304 23 0
-304 24 0
304 -23 -24 0
305 -23 303 0
-305 23 303 0
-306 303 0
305 -306 -23 0
-305 -306 23 0
305 306 23 -303 0
-305 306 -23 -303 0
-307 303 0
305 -307 23 0
-305 -307 -23 0
305 307 -23 -303 0
-305 307 23 -303 0
-308 305 0
-308 303 0
-308 -23 0
308 -305 23 -303 0
309 305 -303 0
309 -305 303 0
-309 305 303 0
-309 -305 -303 0
-310 305 0
-310 303 0
310 -305 -303 0
311 305 -309 0
311 -305 309 0
-311 305 309 0
-311 -305 -309 0
-312 305 0
-312 309 0
312 -305 -309 0
313 -305 311 0
-313 305 311 0
-314 311 0
313 -314 -305 0
-313 -314 305 0
313 314 305 -311 0
-313 314 -305 -311 0
-315 311 0
313 -315 305 0
-313 -315 -305 0
313 315 -305 -311 0
-313 315 305 -311 0
-316 313 0
-316 311 0
-316 -305 0
316 -313 305 -311 0
317 313 -311 0
317 -313 311 0
-317 313 311 0
-317 -313 -311 0
-318 313 0
-318 311 0
318 -313 -311 0
319 62 -313 0
319 -62 313 0
-319 62 313 0
-319 -62 -313 0
320 85 -317 0
320 -85 317 0
-320 85 317 0
-320 -85 -317 0
-321 62 0
-321 317 0
-321 313 -85 0
-321 -313 85 0
321 -62 313 85 -317 0
321 -62 -313 -85 -317 0
322 319 -317 0
322 -319 317 0
-322 319 317 0
-322 -319 -317 0
-323 319 0
-323 317 0
323 -319 -317 0
324 -319 322 0
-324 319 322 0
-325 322 0
324 -325 -319 0
-324 -325 319 0
324 325 319 -322 0
-324 325 -319 -322 0
-326 322 0
324 -326 319 0
-324 -326 -319 0
324 326 -319 -322 0
-324 326 319 -322 0
-327 324 0
-327 322 0
-327 -319 0
327 -324 319 -322 0
328 324 -322 0
328 -324 322 0
-328 324 322 0
-328 -324 -322 0
-329 324 0
-329 322 0
329 -324 -322 0
330 324 -328 0
330 -324 328 0
-330 324 328 0
-330 -324 -328 0
-331 324 0
-331 328 0
331 -324 -328 0
332 -324 330 0
-332 324 330 0
-333 330 0
332 -333 -324 0
-332 -333 324 0
332 333 324 -330 0
-332 333 -324 -330 0
-334 330 0
332 -334 324 0
-332 -334 -324 0
332 334 -324 -330 0
-332 334 324 -330 0
-335 332 0
-335 330 0
-335 -324 0
335 -332 324 -330 0
336 332 -330 0
336 -332 330 0
-336 332 330 0
-336 -332 -330 0
-337 332 0
-337 330 0
337 -332 -330 0
338 124 -332 0
338 -124 332 0
-338 124 332 0
-338 -124 -332 0
339 128 -336 0
339 -128 336 0
-339 128 336 0
-339 -128 -336 0
-340 124 0
-340 336 0
-340 332 -128 0
-340 -332 128 0
340 -124 332 128 -336 0
340 -124 -332 -128 -336 0
341 338 -336 0
341 -338 336 0
-341 338 336 0
-341 -338 -336 0
-342 338 0
-342 336 0
342 -338 -336 0
343 -338 341 0
-343 338 341 0
-344 341 0
343 -344 -338 0
-343 -344 338 0
343 344 338 -341 0
-343 344 -338 -341 0
-345 341 0
343 -345 338 0
-343 -345 -338 0
343 345 -338 -341 0
-343 345 338 -341 0
-346 343 0
-346 341 0
-346 -338 0
346 -343 338 -341 0
347 343 -341 0
347 -343 341 0
-347 343 341 0
-347 -343 -341 0
-348 343 0
-348 341 0
348 -343 -341 0
-27 0
-54 0
-247 0
-62 0
-320 0
-89 0
-201 0
-97 0
-155 0
-124 0
-339 0
-132 0
-220 0
-178 0
-182 0
-224 0
-228 0
-251 0
-293 0
-297 0
-301 0
-343 0
-347 0
